(set-logic QF_LIA)
(set-info :ran/ran2.smt2)
(set-info :smt-lib-version 2.0)
(declare-fun x1 () Int)
(declare-fun x2 () Int)
(declare-fun x3 () Int)
(declare-fun x4 () Int)
(assert (<= (+ (* (- 5) x1) (* (- 3) x2) (* (- 10) x3) (* (- 5) x4) ) (- 519)))
(assert (<= (+ (* 4 x1) (* 9 x2) (* 5 x3) (* (- 3) x4) ) (- 1446)))
(assert (<= (+ (* 0 x1) (* (- 7) x2) (* (- 7) x3) (* 7 x4) ) (- 1705)))
(assert (<= (+ (* 6 x1) (* 4 x2) (* 8 x3) (* 9 x4) ) (- 1496)))
(assert (<= (+ (* (- 7) x1) (* 10 x2) (* (- 3) x3) (* (- 10) x4) ) 350))
(assert (<= (+ (* (- 1) x1) (* 4 x2) (* (- 6) x3) (* (- 5) x4) ) (- 790)))
(assert (<= (+ (* 10 x1) (* (- 2) x2) (* (- 7) x3) (* 10 x4) ) (- 1345)))
(assert (<= (+ (* (- 6) x1) (* 4 x2) (* 2 x3) (* 9 x4) ) 1234))
(assert (<= (+ (* 1 x1) (* 0 x2) (* 0 x3) (* 0 x4) ) 1778))
(assert (<= (+ (* (- 1) x1) (* 0 x2) (* 0 x3) (* 0 x4) ) 1778))
(assert (<= (+ (* 0 x1) (* 1 x2) (* 0 x3) (* 0 x4) ) 1778))
(assert (<= (+ (* 0 x1) (* (- 1) x2) (* 0 x3) (* 0 x4) ) 1778))
(assert (<= (+ (* 0 x1) (* 0 x2) (* 1 x3) (* 0 x4) ) 1778))
(assert (<= (+ (* 0 x1) (* 0 x2) (* (- 1) x3) (* 0 x4) ) 1778))
(assert (<= (+ (* 0 x1) (* 0 x2) (* 0 x3) (* 1 x4) ) 1778))
(assert (<= (+ (* 0 x1) (* 0 x2) (* 0 x3) (* (- 1) x4) ) 1778))
